
Gurobi 11.0.1 (win64) logging started Mon May 13 15:44:00 2024

Set parameter LogFile to value "output/solver_log28.txt"
Gurobi Optimizer version 11.0.1 build v11.0.1rc0 (win64 - Windows 11.0 (22631.2))

CPU model: 11th Gen Intel(R) Core(TM) i7-1165G7 @ 2.80GHz, instruction set [SSE2|AVX|AVX2|AVX512]
Thread count: 4 physical cores, 8 logical processors, using up to 8 threads

Optimize a model with 2427 rows, 527 columns and 45081 nonzeros
Model fingerprint: 0x1f928274
Variable types: 248 continuous, 279 integer (279 binary)
Coefficient statistics:
  Matrix range     [4e-01, 1e+05]
  Objective range  [1e+00, 1e+02]
  Bounds range     [1e+00, 1e+00]
  RHS range        [1e-02, 1e+05]

User MIP start produced solution with objective 76824.4 (0.00s)
User MIP start produced solution with objective 76824.4 (0.01s)
Loaded user MIP start with objective 76824.4

Presolve removed 174 rows and 151 columns
Presolve time: 0.05s
Presolved: 2253 rows, 376 columns, 43364 nonzeros
Variable types: 228 continuous, 148 integer (145 binary)

Root relaxation: cutoff, 19 iterations, 0.01 seconds (0.01 work units)

    Nodes    |    Current Node    |     Objective Bounds      |     Work
 Expl Unexpl |  Obj  Depth IntInf | Incumbent    BestBd   Gap | It/Node Time

     0     0     cutoff    0      76824.3769 76824.3769  0.00%     -    0s

Explored 1 nodes (19 simplex iterations) in 0.12 seconds (0.19 work units)
Thread count was 8 (of 8 available processors)

Solution count 2: 76824.4 76824.4 

Optimal solution found (tolerance 1.00e-04)
Best objective 7.682437691015e+04, best bound 7.682437691015e+04, gap 0.0000%
